5125.32
0 10 1 2 9 6 8 5 3 7 4 11 17 16 34 0
0 14 18 20 15 12 21 13 19 0
0 40 33 31 47 37 46 28 41 30 44 52 22 24 26 23 27 25 0
0 45 35 43 42 36 39 29 32 58 49 53 50 88 0
0 48 38 55 51 56 54 62 59 60 64 0
0 65 68 67 63 57 61 69 72 73 124 0
0 75 70 71 77 76 79 66 84 86 81 83 85 0
0 80 78 110 74 91 94 93 87 82 0
0 89 96 107 90 92 116 120 0
0 108 114 106 95 98 101 97 105 104 100 121 137 0
0 109 111 115 103 99 129 119 122 0
0 118 117 112 113 102 125 130 134 131 123 126 140 0
0 127 128 150 136 132 138 133 135 139 142 145 148 141 143 144 147 0
0 146 149 0
